20
2 1 1
3 0 1
3 1 1
4 1 1
5 0 1
5 1 1
5 2 1
6 2 1
6 5 1
7 0 1
7 1 1
7 4 1
8 0 1
8 1 1
8 2 1
8 3 1
8 5 1
8 6 1
9 1 1
9 2 1
9 4 1
9 5 1
9 6 1
9 7 1
10 0 1
10 3 1
10 9 1
11 1 1
11 2 1
11 6 1
11 7 1
11 8 1
11 9 1
11 10 1
12 0 1
12 1 1
12 2 1
12 4 1
12 5 1
12 6 1
12 7 1
12 8 1
12 10 1
12 11 1
13 1 1
13 2 1
13 4 1
13 5 1
13 6 1
13 9 1
13 10 1
13 12 1
14 0 1
14 1 1
14 2 1
14 3 1
14 12 1
14 13 1
15 2 1
15 6 1
15 8 1
15 9 1
15 11 1
15 14 1
16 0 1
16 2 1
16 8 1
16 10 1
16 12 1
16 13 1
16 14 1
16 15 1
17 2 1
17 3 1
17 4 1
17 6 1
17 9 1
17 13 1
18 2 1
18 5 1
18 6 1
18 7 1
18 8 1
18 9 1
18 11 1
18 12 1
18 13 1
18 16 1
18 17 1
19 0 1
19 1 1
19 3 1
19 9 1
19 10 1
19 11 1
19 13 1
19 14 1
19 15 1
